data;
set K:= K1 K2 K3 K4 K5 K6 K7 K8 K9 K10 K11 K12 K13 K14 K15 ;

set F:= F1 F2 F3 ;

set Q:= Q1 Q2 ;

param T:= 45;
param V: 
	K1  K2  K3  K4  K5  K6  K7  K8  K9  K10 K11 K12 K13 K14 K15 :=
Q1	1   1   1   1   1   1   1   1   1   0   0   0   0   0   0   
Q2	0   0   0   0   0   0   0   0   0   1   1   1   1   1   1   
; # if resorce k is of type q

param TF:= 
K1 6
K2 6
K3 6
K4 6
K5 6
K6 6
K7 6
K8 6
K9 6
K10 12
K11 12
K12 12
K13 12
K14 12
K15 12
; # number of continuous time slots resource can fly

param TR:= 
K1 2
K2 2
K3 2
K4 2
K5 2
K6 2
K7 2
K8 2
K9 2
K10 4
K11 4
K12 4
K13 4
K14 4
K15 4
; #  number of continuous time slots resource k needs to rest between flights

param P:= 
K1 36
K2 36
K3 36
K4 36
K5 36
K6 36
K7 36
K8 36
K9 36
K10 36
K11 36
K12 36
K13 36
K14 36
K15 36
; #  number of continuous time slots a pilot can be present including rest times for resource k 

param N:= 
K1 4
K2 4
K3 4
K4 4
K5 4
K6 4
K7 4
K8 4
K9 4
K10 2
K11 1
K12 2
K13 2
K14 2
K15 2
; # max number of flights resource k can fly in the total time period

param A: 
	K1  K2  K3  K4  K5  K6  K7  K8  K9  K10 K11 K12 K13 K14 K15 :=
1	1   1   1   1   1   1   1   1   1   1   0   1   1   1   1   
2	1   1   1   1   1   1   1   1   1   1   0   1   1   1   1   
3	1   1   1   1   1   1   1   1   1   1   0   1   1   1   1   
4	1   1   1   1   1   1   1   1   1   1   0   1   1   1   1   
5	1   1   1   1   1   1   1   1   1   1   0   1   1   1   1   
6	1   1   1   1   1   1   1   1   1   1   0   1   1   1   1   
7	1   1   1   1   1   1   1   1   1   1   0   1   1   1   1   
8	1   1   1   1   1   1   1   1   1   1   0   1   1   1   1   
9	1   1   1   1   1   1   1   1   1   1   0   1   1   1   1   
10	1   1   1   1   1   1   1   1   1   1   0   1   1   1   1   
11	1   1   1   1   1   1   1   1   1   1   0   1   1   1   1   
12	1   1   1   1   1   1   1   1   1   1   1   1   1   1   1   
13	1   1   1   1   1   1   1   1   1   1   1   1   1   1   1   
14	1   1   1   1   1   1   1   1   1   1   1   1   1   1   1   
15	1   1   1   1   1   1   1   1   1   1   1   1   1   1   1   
16	1   1   1   1   1   1   1   1   1   1   1   1   1   1   1   
17	1   1   1   1   1   1   1   1   1   1   1   1   1   1   1   
18	1   1   1   1   1   1   1   1   1   1   1   1   1   1   1   
19	1   1   1   1   1   1   1   1   1   1   1   1   1   1   1   
20	1   1   1   1   1   1   1   1   1   1   1   1   1   1   1   
21	1   1   1   1   1   1   1   1   1   1   1   1   1   1   1   
22	1   1   1   1   1   1   1   1   1   1   1   1   1   1   1   
23	1   1   1   1   1   1   1   1   1   1   1   1   1   1   1   
24	1   1   1   1   1   1   1   1   1   1   1   1   1   1   1   
25	1   1   1   1   1   1   1   1   1   1   1   1   1   1   1   
26	1   1   1   1   1   1   1   1   1   1   1   1   1   1   1   
27	1   1   1   1   1   1   1   1   1   1   1   1   1   1   1   
28	1   1   1   1   1   1   1   1   1   1   1   1   1   1   1   
29	1   1   1   1   1   1   1   1   1   1   1   1   1   1   1   
30	1   1   1   1   1   1   1   1   1   1   1   1   1   1   1   
31	1   1   1   1   1   1   1   1   1   1   1   1   1   1   1   
32	1   1   1   1   1   1   1   1   1   1   1   1   1   1   1   
33	1   1   1   1   1   1   1   1   1   1   1   1   1   1   1   
34	1   1   1   1   1   1   1   1   1   1   1   1   1   1   1   
35	1   1   1   1   1   1   1   1   1   1   1   1   1   1   1   
36	1   1   1   1   1   1   1   1   1   1   1   1   1   1   1   
37	1   1   1   1   1   1   1   1   1   1   1   1   1   1   1   
38	1   1   1   1   1   1   1   1   1   1   1   1   1   1   1   
39	1   1   1   1   1   1   1   1   1   1   1   1   1   1   1   
40	1   1   1   1   1   1   1   1   1   1   1   1   1   1   1   
41	1   1   1   1   1   1   1   1   1   1   1   1   1   1   1   
42	1   1   1   1   1   1   1   1   1   1   1   1   1   1   1   
43	1   1   1   1   1   1   1   1   1   1   1   1   1   1   1   
44	1   1   1   1   1   1   1   1   1   1   1   1   1   1   1   
45	1   1   1   1   1   1   1   1   1   1   1   1   1   1   1   
; # availability of resorce k in time slot t

param B: 
	F1  F2  F3  :=
Q1	1   0   0   
Q2	0   0   0   
; # if front f requires resources of type q

param U: 
	F1  F2  F3  :=
K1	0   0   0   
K2	0   0   0   
K3	0   0   0   
K4	0   0   0   
K5	0   0   0   
K6	0   0   0   
K7	0   0   0   
K8	0   0   0   
K9	0   0   0   
K10	1   1   1   
K11	0   0   0   
K12	0   0   0   
K13	2   2   2   
K14	2   2   2   
K15	0   0   0   
; # transit time of resource

param C:= 
K1 900
K2 900
K3 900
K4 900
K5 900
K6 1500
K7 1500
K8 4500
K9 4500
K10 5500
K11 5500
K12 5500
K13 5500
K14 5500
K15 5500
; #  water capacity of resource k

param S:= 
F1 7
F2 8
F3 10
; # max number of resources that can fly at front f in the same time slot

param D:= 

[*,*,F1 ]:  K1    K2    K3    K4    K5    K6    K7    K8    K9    K10   K11   K12   K13   K14   K15   :=
1           1.69  1.69  1.69  1.69  1.69  1.69  1.69  1.34  1.34  1.01  1.01  1.01  1.01  1.01  1.01  
2           1.69  1.69  1.69  1.69  1.69  1.69  1.69  1.34  1.34  1.01  1.01  1.01  1.01  1.01  1.01  
3           1.69  1.69  1.69  1.69  1.69  1.69  1.69  1.34  1.34  1.01  1.01  1.01  1.01  1.01  1.01  
4           1.69  1.69  1.69  1.69  1.69  1.69  1.69  1.34  1.34  1.01  1.01  1.01  1.01  1.01  1.01  
5           1.69  1.69  1.69  1.69  1.69  1.69  1.69  1.34  1.34  1.01  1.01  1.01  1.01  1.01  1.01  
6           1.69  1.69  1.69  1.69  1.69  1.69  1.69  1.34  1.34  1.01  1.01  1.01  1.01  1.01  1.01  
7           1.69  1.69  1.69  1.69  1.69  1.69  1.69  1.34  1.34  1.01  1.01  1.01  1.01  1.01  1.01  
8           1.69  1.69  1.69  1.69  1.69  1.69  1.69  1.34  1.34  1.01  1.01  1.01  1.01  1.01  1.01  
9           1.69  1.69  1.69  1.69  1.69  1.69  1.69  1.34  1.34  1.01  1.01  1.01  1.01  1.01  1.01  
10          1.69  1.69  1.69  1.69  1.69  1.69  1.69  1.34  1.34  1.01  1.01  1.01  1.01  1.01  1.01  
11          1.69  1.69  1.69  1.69  1.69  1.69  1.69  1.34  1.34  1.01  1.01  1.01  1.01  1.01  1.01  
12          1.69  1.69  1.69  1.69  1.69  1.69  1.69  1.34  1.34  1.01  1.01  1.01  1.01  1.01  1.01  
13          1.69  1.69  1.69  1.69  1.69  1.69  1.69  1.34  1.34  1.01  1.01  1.01  1.01  1.01  1.01  
14          1.69  1.69  1.69  1.69  1.69  1.69  1.69  1.34  1.34  1.01  1.01  1.01  1.01  1.01  1.01  
15          1.69  1.69  1.69  1.69  1.69  1.69  1.69  1.34  1.34  1.01  1.01  1.01  1.01  1.01  1.01  
16          1.69  1.69  1.69  1.69  1.69  1.69  1.69  1.34  1.34  1.01  1.01  1.01  1.01  1.01  1.01  
17          1.69  1.69  1.69  1.69  1.69  1.69  1.69  1.34  1.34  1.01  1.01  1.01  1.01  1.01  1.01  
18          1.69  1.69  1.69  1.69  1.69  1.69  1.69  1.34  1.34  1.01  1.01  1.01  1.01  1.01  1.01  
19          1.69  1.69  1.69  1.69  1.69  1.69  1.69  1.34  1.34  1.01  1.01  1.01  1.01  1.01  1.01  
20          1.69  1.69  1.69  1.69  1.69  1.69  1.69  1.34  1.34  1.01  1.01  1.01  1.01  1.01  1.01  
21          1.69  1.69  1.69  1.69  1.69  1.69  1.69  1.34  1.34  1.01  1.01  1.01  1.01  1.01  1.01  
22          1.69  1.69  1.69  1.69  1.69  1.69  1.69  1.34  1.34  1.01  1.01  1.01  1.01  1.01  1.01  
23          1.69  1.69  1.69  1.69  1.69  1.69  1.69  1.34  1.34  1.01  1.01  1.01  1.01  1.01  1.01  
24          1.69  1.69  1.69  1.69  1.69  1.69  1.69  1.34  1.34  1.01  1.01  1.01  1.01  1.01  1.01  
25          1.60  1.60  1.60  1.60  1.60  1.60  1.60  1.28  1.28  0.96  0.96  0.96  0.96  0.96  0.96  
26          1.60  1.60  1.60  1.60  1.60  1.60  1.60  1.28  1.28  0.96  0.96  0.96  0.96  0.96  0.96  
27          1.60  1.60  1.60  1.60  1.60  1.60  1.60  1.28  1.28  0.96  0.96  0.96  0.96  0.96  0.96  
28          1.60  1.60  1.60  1.60  1.60  1.60  1.60  1.28  1.28  0.96  0.96  0.96  0.96  0.96  0.96  
29          1.60  1.60  1.60  1.60  1.60  1.60  1.60  1.28  1.28  0.96  0.96  0.96  0.96  0.96  0.96  
30          1.60  1.60  1.60  1.60  1.60  1.60  1.60  1.28  1.28  0.96  0.96  0.96  0.96  0.96  0.96  
31          1.60  1.60  1.60  1.60  1.60  1.60  1.60  1.28  1.28  0.96  0.96  0.96  0.96  0.96  0.96  
32          1.60  1.60  1.60  1.60  1.60  1.60  1.60  1.28  1.28  0.96  0.96  0.96  0.96  0.96  0.96  
33          1.60  1.60  1.60  1.60  1.60  1.60  1.60  1.28  1.28  0.96  0.96  0.96  0.96  0.96  0.96  
34          1.69  1.69  1.69  1.69  1.69  1.69  1.69  1.34  1.34  1.01  1.01  1.01  1.01  1.01  1.01  
35          1.69  1.69  1.69  1.69  1.69  1.69  1.69  1.34  1.34  1.01  1.01  1.01  1.01  1.01  1.01  
36          1.69  1.69  1.69  1.69  1.69  1.69  1.69  1.34  1.34  1.01  1.01  1.01  1.01  1.01  1.01  
37          1.69  1.69  1.69  1.69  1.69  1.69  1.69  1.34  1.34  1.01  1.01  1.01  1.01  1.01  1.01  
38          1.69  1.69  1.69  1.69  1.69  1.69  1.69  1.34  1.34  1.01  1.01  1.01  1.01  1.01  1.01  
39          1.69  1.69  1.69  1.69  1.69  1.69  1.69  1.34  1.34  1.01  1.01  1.01  1.01  1.01  1.01  
40          1.69  1.69  1.69  1.69  1.69  1.69  1.69  1.34  1.34  1.01  1.01  1.01  1.01  1.01  1.01  
41          1.69  1.69  1.69  1.69  1.69  1.69  1.69  1.34  1.34  1.01  1.01  1.01  1.01  1.01  1.01  
42          1.69  1.69  1.69  1.69  1.69  1.69  1.69  1.34  1.34  1.01  1.01  1.01  1.01  1.01  1.01  
43          1.69  1.69  1.69  1.69  1.69  1.69  1.69  1.34  1.34  1.01  1.01  1.01  1.01  1.01  1.01  
44          1.69  1.69  1.69  1.69  1.69  1.69  1.69  1.34  1.34  1.01  1.01  1.01  1.01  1.01  1.01  
45          1.69  1.69  1.69  1.69  1.69  1.69  1.69  1.34  1.34  1.01  1.01  1.01  1.01  1.01  1.01  

[*,*,F2 ]:  K1    K2    K3    K4    K5    K6    K7    K8    K9    K10   K11   K12   K13   K14   K15   :=
1           1.99  1.99  1.99  1.99  1.99  1.99  1.99  1.58  1.58  1.19  1.19  1.19  1.19  1.19  1.19  
2           1.99  1.99  1.99  1.99  1.99  1.99  1.99  1.58  1.58  1.19  1.19  1.19  1.19  1.19  1.19  
3           1.99  1.99  1.99  1.99  1.99  1.99  1.99  1.58  1.58  1.19  1.19  1.19  1.19  1.19  1.19  
4           1.99  1.99  1.99  1.99  1.99  1.99  1.99  1.58  1.58  1.19  1.19  1.19  1.19  1.19  1.19  
5           1.99  1.99  1.99  1.99  1.99  1.99  1.99  1.58  1.58  1.19  1.19  1.19  1.19  1.19  1.19  
6           1.99  1.99  1.99  1.99  1.99  1.99  1.99  1.58  1.58  1.19  1.19  1.19  1.19  1.19  1.19  
7           1.99  1.99  1.99  1.99  1.99  1.99  1.99  1.58  1.58  1.19  1.19  1.19  1.19  1.19  1.19  
8           1.99  1.99  1.99  1.99  1.99  1.99  1.99  1.58  1.58  1.19  1.19  1.19  1.19  1.19  1.19  
9           1.99  1.99  1.99  1.99  1.99  1.99  1.99  1.58  1.58  1.19  1.19  1.19  1.19  1.19  1.19  
10          1.99  1.99  1.99  1.99  1.99  1.99  1.99  1.58  1.58  1.19  1.19  1.19  1.19  1.19  1.19  
11          1.99  1.99  1.99  1.99  1.99  1.99  1.99  1.58  1.58  1.19  1.19  1.19  1.19  1.19  1.19  
12          1.99  1.99  1.99  1.99  1.99  1.99  1.99  1.58  1.58  1.19  1.19  1.19  1.19  1.19  1.19  
13          1.99  1.99  1.99  1.99  1.99  1.99  1.99  1.58  1.58  1.19  1.19  1.19  1.19  1.19  1.19  
14          1.99  1.99  1.99  1.99  1.99  1.99  1.99  1.58  1.58  1.19  1.19  1.19  1.19  1.19  1.19  
15          1.99  1.99  1.99  1.99  1.99  1.99  1.99  1.58  1.58  1.19  1.19  1.19  1.19  1.19  1.19  
16          1.99  1.99  1.99  1.99  1.99  1.99  1.99  1.58  1.58  1.19  1.19  1.19  1.19  1.19  1.19  
17          1.99  1.99  1.99  1.99  1.99  1.99  1.99  1.58  1.58  1.19  1.19  1.19  1.19  1.19  1.19  
18          1.99  1.99  1.99  1.99  1.99  1.99  1.99  1.58  1.58  1.19  1.19  1.19  1.19  1.19  1.19  
19          1.99  1.99  1.99  1.99  1.99  1.99  1.99  1.58  1.58  1.19  1.19  1.19  1.19  1.19  1.19  
20          1.99  1.99  1.99  1.99  1.99  1.99  1.99  1.58  1.58  1.19  1.19  1.19  1.19  1.19  1.19  
21          1.99  1.99  1.99  1.99  1.99  1.99  1.99  1.58  1.58  1.19  1.19  1.19  1.19  1.19  1.19  
22          1.99  1.99  1.99  1.99  1.99  1.99  1.99  1.58  1.58  1.19  1.19  1.19  1.19  1.19  1.19  
23          1.99  1.99  1.99  1.99  1.99  1.99  1.99  1.58  1.58  1.19  1.19  1.19  1.19  1.19  1.19  
24          1.99  1.99  1.99  1.99  1.99  1.99  1.99  1.58  1.58  1.19  1.19  1.19  1.19  1.19  1.19  
25          1.89  1.89  1.89  1.89  1.89  1.89  1.89  1.50  1.50  1.13  1.13  1.13  1.13  1.13  1.13  
26          1.89  1.89  1.89  1.89  1.89  1.89  1.89  1.50  1.50  1.13  1.13  1.13  1.13  1.13  1.13  
27          1.89  1.89  1.89  1.89  1.89  1.89  1.89  1.50  1.50  1.13  1.13  1.13  1.13  1.13  1.13  
28          1.89  1.89  1.89  1.89  1.89  1.89  1.89  1.50  1.50  1.13  1.13  1.13  1.13  1.13  1.13  
29          1.89  1.89  1.89  1.89  1.89  1.89  1.89  1.50  1.50  1.13  1.13  1.13  1.13  1.13  1.13  
30          1.89  1.89  1.89  1.89  1.89  1.89  1.89  1.50  1.50  1.13  1.13  1.13  1.13  1.13  1.13  
31          1.89  1.89  1.89  1.89  1.89  1.89  1.89  1.50  1.50  1.13  1.13  1.13  1.13  1.13  1.13  
32          1.89  1.89  1.89  1.89  1.89  1.89  1.89  1.50  1.50  1.13  1.13  1.13  1.13  1.13  1.13  
33          1.89  1.89  1.89  1.89  1.89  1.89  1.89  1.50  1.50  1.13  1.13  1.13  1.13  1.13  1.13  
34          1.99  1.99  1.99  1.99  1.99  1.99  1.99  1.58  1.58  1.19  1.19  1.19  1.19  1.19  1.19  
35          1.99  1.99  1.99  1.99  1.99  1.99  1.99  1.58  1.58  1.19  1.19  1.19  1.19  1.19  1.19  
36          1.99  1.99  1.99  1.99  1.99  1.99  1.99  1.58  1.58  1.19  1.19  1.19  1.19  1.19  1.19  
37          1.99  1.99  1.99  1.99  1.99  1.99  1.99  1.58  1.58  1.19  1.19  1.19  1.19  1.19  1.19  
38          1.99  1.99  1.99  1.99  1.99  1.99  1.99  1.58  1.58  1.19  1.19  1.19  1.19  1.19  1.19  
39          1.99  1.99  1.99  1.99  1.99  1.99  1.99  1.58  1.58  1.19  1.19  1.19  1.19  1.19  1.19  
40          1.99  1.99  1.99  1.99  1.99  1.99  1.99  1.58  1.58  1.19  1.19  1.19  1.19  1.19  1.19  
41          1.99  1.99  1.99  1.99  1.99  1.99  1.99  1.58  1.58  1.19  1.19  1.19  1.19  1.19  1.19  
42          1.99  1.99  1.99  1.99  1.99  1.99  1.99  1.58  1.58  1.19  1.19  1.19  1.19  1.19  1.19  
43          1.99  1.99  1.99  1.99  1.99  1.99  1.99  1.58  1.58  1.19  1.19  1.19  1.19  1.19  1.19  
44          1.99  1.99  1.99  1.99  1.99  1.99  1.99  1.58  1.58  1.19  1.19  1.19  1.19  1.19  1.19  
45          1.99  1.99  1.99  1.99  1.99  1.99  1.99  1.58  1.58  1.19  1.19  1.19  1.19  1.19  1.19  

[*,*,F3 ]:  K1    K2    K3    K4    K5    K6    K7    K8    K9    K10   K11   K12   K13   K14   K15   :=
1           1.45  1.45  1.45  1.45  1.45  1.45  1.45  1.16  1.16  0.87  0.87  0.87  0.87  0.87  0.87  
2           1.45  1.45  1.45  1.45  1.45  1.45  1.45  1.16  1.16  0.87  0.87  0.87  0.87  0.87  0.87  
3           1.45  1.45  1.45  1.45  1.45  1.45  1.45  1.16  1.16  0.87  0.87  0.87  0.87  0.87  0.87  
4           1.45  1.45  1.45  1.45  1.45  1.45  1.45  1.16  1.16  0.87  0.87  0.87  0.87  0.87  0.87  
5           1.45  1.45  1.45  1.45  1.45  1.45  1.45  1.16  1.16  0.87  0.87  0.87  0.87  0.87  0.87  
6           1.45  1.45  1.45  1.45  1.45  1.45  1.45  1.16  1.16  0.87  0.87  0.87  0.87  0.87  0.87  
7           1.45  1.45  1.45  1.45  1.45  1.45  1.45  1.16  1.16  0.87  0.87  0.87  0.87  0.87  0.87  
8           1.45  1.45  1.45  1.45  1.45  1.45  1.45  1.16  1.16  0.87  0.87  0.87  0.87  0.87  0.87  
9           1.45  1.45  1.45  1.45  1.45  1.45  1.45  1.16  1.16  0.87  0.87  0.87  0.87  0.87  0.87  
10          1.45  1.45  1.45  1.45  1.45  1.45  1.45  1.16  1.16  0.87  0.87  0.87  0.87  0.87  0.87  
11          1.45  1.45  1.45  1.45  1.45  1.45  1.45  1.16  1.16  0.87  0.87  0.87  0.87  0.87  0.87  
12          1.45  1.45  1.45  1.45  1.45  1.45  1.45  1.16  1.16  0.87  0.87  0.87  0.87  0.87  0.87  
13          1.45  1.45  1.45  1.45  1.45  1.45  1.45  1.16  1.16  0.87  0.87  0.87  0.87  0.87  0.87  
14          1.45  1.45  1.45  1.45  1.45  1.45  1.45  1.16  1.16  0.87  0.87  0.87  0.87  0.87  0.87  
15          1.45  1.45  1.45  1.45  1.45  1.45  1.45  1.16  1.16  0.87  0.87  0.87  0.87  0.87  0.87  
16          1.45  1.45  1.45  1.45  1.45  1.45  1.45  1.16  1.16  0.87  0.87  0.87  0.87  0.87  0.87  
17          1.45  1.45  1.45  1.45  1.45  1.45  1.45  1.16  1.16  0.87  0.87  0.87  0.87  0.87  0.87  
18          1.45  1.45  1.45  1.45  1.45  1.45  1.45  1.16  1.16  0.87  0.87  0.87  0.87  0.87  0.87  
19          1.45  1.45  1.45  1.45  1.45  1.45  1.45  1.16  1.16  0.87  0.87  0.87  0.87  0.87  0.87  
20          1.45  1.45  1.45  1.45  1.45  1.45  1.45  1.16  1.16  0.87  0.87  0.87  0.87  0.87  0.87  
21          1.45  1.45  1.45  1.45  1.45  1.45  1.45  1.16  1.16  0.87  0.87  0.87  0.87  0.87  0.87  
22          1.45  1.45  1.45  1.45  1.45  1.45  1.45  1.16  1.16  0.87  0.87  0.87  0.87  0.87  0.87  
23          1.45  1.45  1.45  1.45  1.45  1.45  1.45  1.16  1.16  0.87  0.87  0.87  0.87  0.87  0.87  
24          1.45  1.45  1.45  1.45  1.45  1.45  1.45  1.16  1.16  0.87  0.87  0.87  0.87  0.87  0.87  
25          1.38  1.38  1.38  1.38  1.38  1.38  1.38  1.10  1.10  0.83  0.83  0.83  0.83  0.83  0.83  
26          1.38  1.38  1.38  1.38  1.38  1.38  1.38  1.10  1.10  0.83  0.83  0.83  0.83  0.83  0.83  
27          1.38  1.38  1.38  1.38  1.38  1.38  1.38  1.10  1.10  0.83  0.83  0.83  0.83  0.83  0.83  
28          1.38  1.38  1.38  1.38  1.38  1.38  1.38  1.10  1.10  0.83  0.83  0.83  0.83  0.83  0.83  
29          1.38  1.38  1.38  1.38  1.38  1.38  1.38  1.10  1.10  0.83  0.83  0.83  0.83  0.83  0.83  
30          1.38  1.38  1.38  1.38  1.38  1.38  1.38  1.10  1.10  0.83  0.83  0.83  0.83  0.83  0.83  
31          1.38  1.38  1.38  1.38  1.38  1.38  1.38  1.10  1.10  0.83  0.83  0.83  0.83  0.83  0.83  
32          1.38  1.38  1.38  1.38  1.38  1.38  1.38  1.10  1.10  0.83  0.83  0.83  0.83  0.83  0.83  
33          1.38  1.38  1.38  1.38  1.38  1.38  1.38  1.10  1.10  0.83  0.83  0.83  0.83  0.83  0.83  
34          1.45  1.45  1.45  1.45  1.45  1.45  1.45  1.16  1.16  0.87  0.87  0.87  0.87  0.87  0.87  
35          1.45  1.45  1.45  1.45  1.45  1.45  1.45  1.16  1.16  0.87  0.87  0.87  0.87  0.87  0.87  
36          1.45  1.45  1.45  1.45  1.45  1.45  1.45  1.16  1.16  0.87  0.87  0.87  0.87  0.87  0.87  
37          1.45  1.45  1.45  1.45  1.45  1.45  1.45  1.16  1.16  0.87  0.87  0.87  0.87  0.87  0.87  
38          1.45  1.45  1.45  1.45  1.45  1.45  1.45  1.16  1.16  0.87  0.87  0.87  0.87  0.87  0.87  
39          1.45  1.45  1.45  1.45  1.45  1.45  1.45  1.16  1.16  0.87  0.87  0.87  0.87  0.87  0.87  
40          1.45  1.45  1.45  1.45  1.45  1.45  1.45  1.16  1.16  0.87  0.87  0.87  0.87  0.87  0.87  
41          1.45  1.45  1.45  1.45  1.45  1.45  1.45  1.16  1.16  0.87  0.87  0.87  0.87  0.87  0.87  
42          1.45  1.45  1.45  1.45  1.45  1.45  1.45  1.16  1.16  0.87  0.87  0.87  0.87  0.87  0.87  
43          1.45  1.45  1.45  1.45  1.45  1.45  1.45  1.16  1.16  0.87  0.87  0.87  0.87  0.87  0.87  
44          1.45  1.45  1.45  1.45  1.45  1.45  1.45  1.16  1.16  0.87  0.87  0.87  0.87  0.87  0.87  
45          1.45  1.45  1.45  1.45  1.45  1.45  1.45  1.16  1.16  0.87  0.87  0.87  0.87  0.87  0.87  
; # downloads resource k can do at front f in time t if intermediate time slot

param E:= 

[*,*,F1 ]:  K1    K2    K3    K4    K5    K6    K7    K8    K9    K10   K11   K12   K13   K14   K15   :=
1           0.40  0.05  0.37  0.61  0.02  0.17  0.42  0.59  0.70  0.25  0.12  0.17  0.08  0.07  0.35  
2           0.40  0.05  0.37  0.61  0.02  0.17  0.42  0.59  0.70  0.25  0.12  0.17  0.08  0.07  0.35  
3           0.40  0.05  0.37  0.61  0.02  0.17  0.42  0.59  0.70  0.25  0.12  0.17  0.08  0.07  0.35  
4           0.40  0.05  0.37  0.61  0.02  0.17  0.42  0.59  0.70  0.25  0.12  0.17  0.08  0.07  0.35  
5           0.40  0.05  0.37  0.61  0.02  0.17  0.42  0.59  0.70  0.25  0.12  0.17  0.08  0.07  0.35  
6           0.40  0.05  0.37  0.61  0.02  0.17  0.42  0.59  0.70  0.25  0.12  0.17  0.08  0.07  0.35  
7           0.40  0.05  0.37  0.61  0.02  0.17  0.42  0.59  0.70  0.25  0.12  0.17  0.08  0.07  0.35  
8           0.40  0.05  0.37  0.61  0.02  0.17  0.42  0.59  0.70  0.25  0.12  0.17  0.08  0.07  0.35  
9           0.40  0.05  0.37  0.61  0.02  0.17  0.42  0.59  0.70  0.25  0.12  0.17  0.08  0.07  0.35  
10          0.40  0.05  0.37  0.61  0.02  0.17  0.42  0.59  0.70  0.25  0.12  0.17  0.08  0.07  0.35  
11          0.40  0.05  0.37  0.61  0.02  0.17  0.42  0.59  0.70  0.25  0.12  0.17  0.08  0.07  0.35  
12          0.40  0.05  0.37  0.61  0.02  0.17  0.42  0.59  0.70  0.25  0.12  0.17  0.08  0.07  0.35  
13          0.40  0.05  0.37  0.61  0.02  0.17  0.42  0.59  0.70  0.25  0.12  0.17  0.08  0.07  0.35  
14          0.40  0.05  0.37  0.61  0.02  0.17  0.42  0.59  0.70  0.25  0.12  0.17  0.08  0.07  0.35  
15          0.40  0.05  0.37  0.61  0.02  0.17  0.42  0.59  0.70  0.25  0.12  0.17  0.08  0.07  0.35  
16          0.40  0.05  0.37  0.61  0.02  0.17  0.42  0.59  0.70  0.25  0.12  0.17  0.08  0.07  0.35  
17          0.40  0.05  0.37  0.61  0.02  0.17  0.42  0.59  0.70  0.25  0.12  0.17  0.08  0.07  0.35  
18          0.40  0.05  0.37  0.61  0.02  0.17  0.42  0.59  0.70  0.25  0.12  0.17  0.08  0.07  0.35  
19          0.40  0.05  0.37  0.61  0.02  0.17  0.42  0.59  0.70  0.25  0.12  0.17  0.08  0.07  0.35  
20          0.40  0.05  0.37  0.61  0.02  0.17  0.42  0.59  0.70  0.25  0.12  0.17  0.08  0.07  0.35  
21          0.40  0.05  0.37  0.61  0.02  0.17  0.42  0.59  0.70  0.25  0.12  0.17  0.08  0.07  0.35  
22          0.40  0.05  0.37  0.61  0.02  0.17  0.42  0.59  0.70  0.25  0.12  0.17  0.08  0.07  0.35  
23          0.40  0.05  0.37  0.61  0.02  0.17  0.42  0.59  0.70  0.25  0.12  0.17  0.08  0.07  0.35  
24          0.40  0.05  0.37  0.61  0.02  0.17  0.42  0.59  0.70  0.25  0.12  0.17  0.08  0.07  0.35  
25          0.38  0.05  0.35  0.58  0.02  0.16  0.40  0.56  0.66  0.24  0.12  0.16  0.08  0.07  0.34  
26          0.38  0.05  0.35  0.58  0.02  0.16  0.40  0.56  0.66  0.24  0.12  0.16  0.08  0.07  0.34  
27          0.38  0.05  0.35  0.58  0.02  0.16  0.40  0.56  0.66  0.24  0.12  0.16  0.08  0.07  0.34  
28          0.38  0.05  0.35  0.58  0.02  0.16  0.40  0.56  0.66  0.24  0.12  0.16  0.08  0.07  0.34  
29          0.38  0.05  0.35  0.58  0.02  0.16  0.40  0.56  0.66  0.24  0.12  0.16  0.08  0.07  0.34  
30          0.38  0.05  0.35  0.58  0.02  0.16  0.40  0.56  0.66  0.24  0.12  0.16  0.08  0.07  0.34  
31          0.38  0.05  0.35  0.58  0.02  0.16  0.40  0.56  0.66  0.24  0.12  0.16  0.08  0.07  0.34  
32          0.38  0.05  0.35  0.58  0.02  0.16  0.40  0.56  0.66  0.24  0.12  0.16  0.08  0.07  0.34  
33          0.38  0.05  0.35  0.58  0.02  0.16  0.40  0.56  0.66  0.24  0.12  0.16  0.08  0.07  0.34  
34          0.40  0.05  0.37  0.61  0.02  0.17  0.42  0.59  0.70  0.25  0.12  0.17  0.08  0.07  0.35  
35          0.40  0.05  0.37  0.61  0.02  0.17  0.42  0.59  0.70  0.25  0.12  0.17  0.08  0.07  0.35  
36          0.40  0.05  0.37  0.61  0.02  0.17  0.42  0.59  0.70  0.25  0.12  0.17  0.08  0.07  0.35  
37          0.40  0.05  0.37  0.61  0.02  0.17  0.42  0.59  0.70  0.25  0.12  0.17  0.08  0.07  0.35  
38          0.40  0.05  0.37  0.61  0.02  0.17  0.42  0.59  0.70  0.25  0.12  0.17  0.08  0.07  0.35  
39          0.40  0.05  0.37  0.61  0.02  0.17  0.42  0.59  0.70  0.25  0.12  0.17  0.08  0.07  0.35  
40          0.40  0.05  0.37  0.61  0.02  0.17  0.42  0.59  0.70  0.25  0.12  0.17  0.08  0.07  0.35  
41          0.40  0.05  0.37  0.61  0.02  0.17  0.42  0.59  0.70  0.25  0.12  0.17  0.08  0.07  0.35  
42          0.40  0.05  0.37  0.61  0.02  0.17  0.42  0.59  0.70  0.25  0.12  0.17  0.08  0.07  0.35  
43          0.40  0.05  0.37  0.61  0.02  0.17  0.42  0.59  0.70  0.25  0.12  0.17  0.08  0.07  0.35  
44          0.40  0.05  0.37  0.61  0.02  0.17  0.42  0.59  0.70  0.25  0.12  0.17  0.08  0.07  0.35  
45          0.40  0.05  0.37  0.61  0.02  0.17  0.42  0.59  0.70  0.25  0.12  0.17  0.08  0.07  0.35  

[*,*,F2 ]:  K1    K2    K3    K4    K5    K6    K7    K8    K9    K10   K11   K12   K13   K14   K15   :=
1           0.40  0.04  0.50  0.70  0.12  0.16  0.50  0.62  0.71  0.33  0.13  0.15  0.12  0.00  0.45  
2           0.40  0.04  0.50  0.70  0.12  0.16  0.50  0.62  0.71  0.33  0.13  0.15  0.12  0.00  0.45  
3           0.40  0.04  0.50  0.70  0.12  0.16  0.50  0.62  0.71  0.33  0.13  0.15  0.12  0.00  0.45  
4           0.40  0.04  0.50  0.70  0.12  0.16  0.50  0.62  0.71  0.33  0.13  0.15  0.12  0.00  0.45  
5           0.40  0.04  0.50  0.70  0.12  0.16  0.50  0.62  0.71  0.33  0.13  0.15  0.12  0.00  0.45  
6           0.40  0.04  0.50  0.70  0.12  0.16  0.50  0.62  0.71  0.33  0.13  0.15  0.12  0.00  0.45  
7           0.40  0.04  0.50  0.70  0.12  0.16  0.50  0.62  0.71  0.33  0.13  0.15  0.12  0.00  0.45  
8           0.40  0.04  0.50  0.70  0.12  0.16  0.50  0.62  0.71  0.33  0.13  0.15  0.12  0.00  0.45  
9           0.40  0.04  0.50  0.70  0.12  0.16  0.50  0.62  0.71  0.33  0.13  0.15  0.12  0.00  0.45  
10          0.40  0.04  0.50  0.70  0.12  0.16  0.50  0.62  0.71  0.33  0.13  0.15  0.12  0.00  0.45  
11          0.40  0.04  0.50  0.70  0.12  0.16  0.50  0.62  0.71  0.33  0.13  0.15  0.12  0.00  0.45  
12          0.40  0.04  0.50  0.70  0.12  0.16  0.50  0.62  0.71  0.33  0.13  0.15  0.12  0.00  0.45  
13          0.40  0.04  0.50  0.70  0.12  0.16  0.50  0.62  0.71  0.33  0.13  0.15  0.12  0.00  0.45  
14          0.40  0.04  0.50  0.70  0.12  0.16  0.50  0.62  0.71  0.33  0.13  0.15  0.12  0.00  0.45  
15          0.40  0.04  0.50  0.70  0.12  0.16  0.50  0.62  0.71  0.33  0.13  0.15  0.12  0.00  0.45  
16          0.40  0.04  0.50  0.70  0.12  0.16  0.50  0.62  0.71  0.33  0.13  0.15  0.12  0.00  0.45  
17          0.40  0.04  0.50  0.70  0.12  0.16  0.50  0.62  0.71  0.33  0.13  0.15  0.12  0.00  0.45  
18          0.40  0.04  0.50  0.70  0.12  0.16  0.50  0.62  0.71  0.33  0.13  0.15  0.12  0.00  0.45  
19          0.40  0.04  0.50  0.70  0.12  0.16  0.50  0.62  0.71  0.33  0.13  0.15  0.12  0.00  0.45  
20          0.40  0.04  0.50  0.70  0.12  0.16  0.50  0.62  0.71  0.33  0.13  0.15  0.12  0.00  0.45  
21          0.40  0.04  0.50  0.70  0.12  0.16  0.50  0.62  0.71  0.33  0.13  0.15  0.12  0.00  0.45  
22          0.40  0.04  0.50  0.70  0.12  0.16  0.50  0.62  0.71  0.33  0.13  0.15  0.12  0.00  0.45  
23          0.40  0.04  0.50  0.70  0.12  0.16  0.50  0.62  0.71  0.33  0.13  0.15  0.12  0.00  0.45  
24          0.40  0.04  0.50  0.70  0.12  0.16  0.50  0.62  0.71  0.33  0.13  0.15  0.12  0.00  0.45  
25          0.38  0.04  0.47  0.66  0.11  0.15  0.47  0.59  0.68  0.32  0.12  0.15  0.11  0.00  0.43  
26          0.38  0.04  0.47  0.66  0.11  0.15  0.47  0.59  0.68  0.32  0.12  0.15  0.11  0.00  0.43  
27          0.38  0.04  0.47  0.66  0.11  0.15  0.47  0.59  0.68  0.32  0.12  0.15  0.11  0.00  0.43  
28          0.38  0.04  0.47  0.66  0.11  0.15  0.47  0.59  0.68  0.32  0.12  0.15  0.11  0.00  0.43  
29          0.38  0.04  0.47  0.66  0.11  0.15  0.47  0.59  0.68  0.32  0.12  0.15  0.11  0.00  0.43  
30          0.38  0.04  0.47  0.66  0.11  0.15  0.47  0.59  0.68  0.32  0.12  0.15  0.11  0.00  0.43  
31          0.38  0.04  0.47  0.66  0.11  0.15  0.47  0.59  0.68  0.32  0.12  0.15  0.11  0.00  0.43  
32          0.38  0.04  0.47  0.66  0.11  0.15  0.47  0.59  0.68  0.32  0.12  0.15  0.11  0.00  0.43  
33          0.38  0.04  0.47  0.66  0.11  0.15  0.47  0.59  0.68  0.32  0.12  0.15  0.11  0.00  0.43  
34          0.40  0.04  0.50  0.70  0.12  0.16  0.50  0.62  0.71  0.33  0.13  0.15  0.12  0.00  0.45  
35          0.40  0.04  0.50  0.70  0.12  0.16  0.50  0.62  0.71  0.33  0.13  0.15  0.12  0.00  0.45  
36          0.40  0.04  0.50  0.70  0.12  0.16  0.50  0.62  0.71  0.33  0.13  0.15  0.12  0.00  0.45  
37          0.40  0.04  0.50  0.70  0.12  0.16  0.50  0.62  0.71  0.33  0.13  0.15  0.12  0.00  0.45  
38          0.40  0.04  0.50  0.70  0.12  0.16  0.50  0.62  0.71  0.33  0.13  0.15  0.12  0.00  0.45  
39          0.40  0.04  0.50  0.70  0.12  0.16  0.50  0.62  0.71  0.33  0.13  0.15  0.12  0.00  0.45  
40          0.40  0.04  0.50  0.70  0.12  0.16  0.50  0.62  0.71  0.33  0.13  0.15  0.12  0.00  0.45  
41          0.40  0.04  0.50  0.70  0.12  0.16  0.50  0.62  0.71  0.33  0.13  0.15  0.12  0.00  0.45  
42          0.40  0.04  0.50  0.70  0.12  0.16  0.50  0.62  0.71  0.33  0.13  0.15  0.12  0.00  0.45  
43          0.40  0.04  0.50  0.70  0.12  0.16  0.50  0.62  0.71  0.33  0.13  0.15  0.12  0.00  0.45  
44          0.40  0.04  0.50  0.70  0.12  0.16  0.50  0.62  0.71  0.33  0.13  0.15  0.12  0.00  0.45  
45          0.40  0.04  0.50  0.70  0.12  0.16  0.50  0.62  0.71  0.33  0.13  0.15  0.12  0.00  0.45  

[*,*,F3 ]:  K1    K2    K3    K4    K5    K6    K7    K8    K9    K10   K11   K12   K13   K14   K15   :=
1           0.25  0.03  0.28  0.54  0.07  0.04  0.36  0.42  0.50  0.28  0.04  0.12  0.08  0.04  0.33  
2           0.25  0.03  0.28  0.54  0.07  0.04  0.36  0.42  0.50  0.28  0.04  0.12  0.08  0.04  0.33  
3           0.25  0.03  0.28  0.54  0.07  0.04  0.36  0.42  0.50  0.28  0.04  0.12  0.08  0.04  0.33  
4           0.25  0.03  0.28  0.54  0.07  0.04  0.36  0.42  0.50  0.28  0.04  0.12  0.08  0.04  0.33  
5           0.25  0.03  0.28  0.54  0.07  0.04  0.36  0.42  0.50  0.28  0.04  0.12  0.08  0.04  0.33  
6           0.25  0.03  0.28  0.54  0.07  0.04  0.36  0.42  0.50  0.28  0.04  0.12  0.08  0.04  0.33  
7           0.25  0.03  0.28  0.54  0.07  0.04  0.36  0.42  0.50  0.28  0.04  0.12  0.08  0.04  0.33  
8           0.25  0.03  0.28  0.54  0.07  0.04  0.36  0.42  0.50  0.28  0.04  0.12  0.08  0.04  0.33  
9           0.25  0.03  0.28  0.54  0.07  0.04  0.36  0.42  0.50  0.28  0.04  0.12  0.08  0.04  0.33  
10          0.25  0.03  0.28  0.54  0.07  0.04  0.36  0.42  0.50  0.28  0.04  0.12  0.08  0.04  0.33  
11          0.25  0.03  0.28  0.54  0.07  0.04  0.36  0.42  0.50  0.28  0.04  0.12  0.08  0.04  0.33  
12          0.25  0.03  0.28  0.54  0.07  0.04  0.36  0.42  0.50  0.28  0.04  0.12  0.08  0.04  0.33  
13          0.25  0.03  0.28  0.54  0.07  0.04  0.36  0.42  0.50  0.28  0.04  0.12  0.08  0.04  0.33  
14          0.25  0.03  0.28  0.54  0.07  0.04  0.36  0.42  0.50  0.28  0.04  0.12  0.08  0.04  0.33  
15          0.25  0.03  0.28  0.54  0.07  0.04  0.36  0.42  0.50  0.28  0.04  0.12  0.08  0.04  0.33  
16          0.25  0.03  0.28  0.54  0.07  0.04  0.36  0.42  0.50  0.28  0.04  0.12  0.08  0.04  0.33  
17          0.25  0.03  0.28  0.54  0.07  0.04  0.36  0.42  0.50  0.28  0.04  0.12  0.08  0.04  0.33  
18          0.25  0.03  0.28  0.54  0.07  0.04  0.36  0.42  0.50  0.28  0.04  0.12  0.08  0.04  0.33  
19          0.25  0.03  0.28  0.54  0.07  0.04  0.36  0.42  0.50  0.28  0.04  0.12  0.08  0.04  0.33  
20          0.25  0.03  0.28  0.54  0.07  0.04  0.36  0.42  0.50  0.28  0.04  0.12  0.08  0.04  0.33  
21          0.25  0.03  0.28  0.54  0.07  0.04  0.36  0.42  0.50  0.28  0.04  0.12  0.08  0.04  0.33  
22          0.25  0.03  0.28  0.54  0.07  0.04  0.36  0.42  0.50  0.28  0.04  0.12  0.08  0.04  0.33  
23          0.25  0.03  0.28  0.54  0.07  0.04  0.36  0.42  0.50  0.28  0.04  0.12  0.08  0.04  0.33  
24          0.25  0.03  0.28  0.54  0.07  0.04  0.36  0.42  0.50  0.28  0.04  0.12  0.08  0.04  0.33  
25          0.23  0.03  0.26  0.51  0.07  0.04  0.35  0.40  0.47  0.26  0.04  0.12  0.07  0.04  0.31  
26          0.23  0.03  0.26  0.51  0.07  0.04  0.35  0.40  0.47  0.26  0.04  0.12  0.07  0.04  0.31  
27          0.23  0.03  0.26  0.51  0.07  0.04  0.35  0.40  0.47  0.26  0.04  0.12  0.07  0.04  0.31  
28          0.23  0.03  0.26  0.51  0.07  0.04  0.35  0.40  0.47  0.26  0.04  0.12  0.07  0.04  0.31  
29          0.23  0.03  0.26  0.51  0.07  0.04  0.35  0.40  0.47  0.26  0.04  0.12  0.07  0.04  0.31  
30          0.23  0.03  0.26  0.51  0.07  0.04  0.35  0.40  0.47  0.26  0.04  0.12  0.07  0.04  0.31  
31          0.23  0.03  0.26  0.51  0.07  0.04  0.35  0.40  0.47  0.26  0.04  0.12  0.07  0.04  0.31  
32          0.23  0.03  0.26  0.51  0.07  0.04  0.35  0.40  0.47  0.26  0.04  0.12  0.07  0.04  0.31  
33          0.23  0.03  0.26  0.51  0.07  0.04  0.35  0.40  0.47  0.26  0.04  0.12  0.07  0.04  0.31  
34          0.25  0.03  0.28  0.54  0.07  0.04  0.36  0.42  0.50  0.28  0.04  0.12  0.08  0.04  0.33  
35          0.25  0.03  0.28  0.54  0.07  0.04  0.36  0.42  0.50  0.28  0.04  0.12  0.08  0.04  0.33  
36          0.25  0.03  0.28  0.54  0.07  0.04  0.36  0.42  0.50  0.28  0.04  0.12  0.08  0.04  0.33  
37          0.25  0.03  0.28  0.54  0.07  0.04  0.36  0.42  0.50  0.28  0.04  0.12  0.08  0.04  0.33  
38          0.25  0.03  0.28  0.54  0.07  0.04  0.36  0.42  0.50  0.28  0.04  0.12  0.08  0.04  0.33  
39          0.25  0.03  0.28  0.54  0.07  0.04  0.36  0.42  0.50  0.28  0.04  0.12  0.08  0.04  0.33  
40          0.25  0.03  0.28  0.54  0.07  0.04  0.36  0.42  0.50  0.28  0.04  0.12  0.08  0.04  0.33  
41          0.25  0.03  0.28  0.54  0.07  0.04  0.36  0.42  0.50  0.28  0.04  0.12  0.08  0.04  0.33  
42          0.25  0.03  0.28  0.54  0.07  0.04  0.36  0.42  0.50  0.28  0.04  0.12  0.08  0.04  0.33  
43          0.25  0.03  0.28  0.54  0.07  0.04  0.36  0.42  0.50  0.28  0.04  0.12  0.08  0.04  0.33  
44          0.25  0.03  0.28  0.54  0.07  0.04  0.36  0.42  0.50  0.28  0.04  0.12  0.08  0.04  0.33  
45          0.25  0.03  0.28  0.54  0.07  0.04  0.36  0.42  0.50  0.28  0.04  0.12  0.08  0.04  0.33  
; # downloads resource k can do at front f in time t if starting or ending flight

param W: 
	F1        F2        F3        :=
1	935.98    467.99    467.99    
2	3743.91   1871.96   1871.96   
3	3743.91   1871.96   1871.96   
4	3743.91   1871.96   1871.96   
5	3743.91   1871.96   1871.96   
6	3743.91   1871.96   1871.96   
7	3743.91   1871.96   1871.96   
8	3743.91   1871.96   1871.96   
9	3743.91   1871.96   1871.96   
10	3743.91   1871.96   1871.96   
11	3743.91   1871.96   1871.96   
12	3743.91   1871.96   1871.96   
13	3743.91   1871.96   1871.96   
14	3743.91   1871.96   1871.96   
15	3743.91   1871.96   1871.96   
16	3743.91   1871.96   1871.96   
17	3743.91   1871.96   1871.96   
18	3743.91   1871.96   1871.96   
19	1663.96   831.98    831.98    
20	1663.96   831.98    831.98    
21	1663.96   831.98    831.98    
22	1663.96   831.98    831.98    
23	1663.96   831.98    831.98    
24	1663.96   831.98    831.98    
25	1663.96   831.98    831.98    
26	1663.96   831.98    831.98    
27	1663.96   831.98    831.98    
28	1663.96   831.98    831.98    
29	1663.96   831.98    831.98    
30	1663.96   831.98    831.98    
31	1663.96   831.98    831.98    
32	1663.96   831.98    831.98    
33	1663.96   831.98    831.98    
34	1663.96   831.98    831.98    
35	1663.96   831.98    831.98    
36	1663.96   831.98    831.98    
37	1663.96   831.98    831.98    
38	1663.96   831.98    831.98    
39	1663.96   831.98    831.98    
40	1663.96   831.98    831.98    
41	1663.96   831.98    831.98    
42	1663.96   831.98    831.98    
43	1663.96   831.98    831.98    
44	1663.96   831.98    831.98    
45	415.99    208.00    208.00    
; # water needed at front f in time slot t

param M := 100000000; 

param a1:= 10000000;

param a2:= 100;

param a3:= 0.0001;
